[2026-03-23T16:00:19.064Z] Pipeline "set_exp_3_exp_3_n021_c004_g004" → 2026_03_23_16_00_18_set_exp_3_exp_3_n021_c004_g004_max.sol
Set parameter WLSAccessID
Set parameter WLSSecret
Set parameter LicenseID to value 2792458
Set parameter LogFile to value "gurobi.log"
Using license file /root/gurobi.lic
Academic license 2792458 - for non-commercial use only - registered to an___@studenti.unipg.it

Gurobi Optimizer version 13.0.1 build v13.0.1rc0 (linux64 - "Ubuntu 24.04.4 LTS")
Copyright (c) 2026, Gurobi Optimization, LLC

Warning: Duplicate section found (read 'binary') - Is a variable name equal to an LP file format keyword?
Warning: Duplicate section found (read 'binary') - Is a variable name equal to an LP file format keyword?
Warning: Duplicate section found (read 'binary') - Is a variable name equal to an LP file format keyword?
Warning: Duplicate section found (read 'binary') - Is a variable name equal to an LP file format keyword?
Warning: Duplicate section found (read 'binary') - Is a variable name equal to an LP file format keyword?
Warning: Duplicate section found (read 'binary') - Is a variable name equal to an LP file format keyword?
Warning: Duplicate section found (read 'binary') - Is a variable name equal to an LP file format keyword?
Warning: Duplicate section found (read 'binary') - Is a variable name equal to an LP file format keyword?
Warning: Duplicate section found (read 'binary') - Is a variable name equal to an LP file format keyword?
Warning: Duplicate section found (read 'binary') - Is a variable name equal to an LP file format keyword?
Warning: Further warnings of this type will be omitted.
Read LP format model from file /root/bgw/data/uploads/2026_03_23_16_00_18_set_exp_3_exp_3_n021_c004_g004_max.lp
Reading time = 0.00 seconds
: 3121 rows, 325 columns, 9320 nonzeros

Using Gurobi shared library /opt/gurobi1301/linux64/lib/libgurobi.so.13.0.1

CPU model: AMD EPYC-Genoa Processor, instruction set [SSE2|AVX|AVX2|AVX512]
Thread count: 16 physical cores, 16 logical processors, using up to 16 threads

Academic license 2792458 - for non-commercial use only - registered to an___@studenti.unipg.it
Optimize a model with 3121 rows, 325 columns and 9320 nonzeros (Max)
Model fingerprint: 0xbdf92e7e
Model has 8 linear objective coefficients
Variable types: 29 continuous, 296 integer (296 binary)
Coefficient statistics:
  Matrix range     [1e+00, 2e+01]
  Objective range  [1e+00, 1e+00]
  Bounds range     [1e+00, 1e+00]
  RHS range        [1e+00, 2e+01]

Found heuristic solution: objective 8.0000000
Presolve removed 430 rows and 96 columns
Presolve time: 0.01s
Presolved: 2691 rows, 229 columns, 8199 nonzeros
Variable types: 0 continuous, 229 integer (222 binary)
Found heuristic solution: objective 10.0000000

Root relaxation: objective 3.500000e+01, 265 iterations, 0.01 seconds (0.01 work units)

    Nodes    |    Current Node    |     Objective Bounds      |     Work
 Expl Unexpl |  Obj  Depth IntInf | Incumbent    BestBd   Gap | It/Node Time

     0     0   35.00000    0   26   10.00000   35.00000   250%     -    0s
H    0     0                      13.0000000   35.00000   169%     -    0s
H    0     0                      14.0000000   35.00000   150%     -    0s
H    0     0                      15.0000000   35.00000   133%     -    0s
H    0     0                      16.0000000   35.00000   119%     -    0s
H    0     0                      18.0000000   35.00000  94.4%     -    0s
H    0     0                      20.0000000   35.00000  75.0%     -    0s
     0     0   35.00000    0   21   20.00000   35.00000  75.0%     -    0s
     0     0   35.00000    0   27   20.00000   35.00000  75.0%     -    0s
     0     0   35.00000    0   27   20.00000   35.00000  75.0%     -    0s
H    0     0                      21.0000000   35.00000  66.7%     -    0s
     0     0   35.00000    0   27   21.00000   35.00000  66.7%     -    0s
     0     0   35.00000    0   27   21.00000   35.00000  66.7%     -    0s
     0     0   35.00000    0   16   21.00000   35.00000  66.7%     -    0s
     0     0   35.00000    0   26   21.00000   35.00000  66.7%     -    0s
     0     0   35.00000    0   25   21.00000   35.00000  66.7%     -    0s
H    0     0                      22.0000000   35.00000  59.1%     -    0s
     0     0   35.00000    0   26   22.00000   35.00000  59.1%     -    0s
     0     0   35.00000    0   25   22.00000   35.00000  59.1%     -    0s
     0     0   35.00000    0   25   22.00000   35.00000  59.1%     -    0s
     0     0   35.00000    0   25   22.00000   35.00000  59.1%     -    0s
     0     0   35.00000    0   25   22.00000   35.00000  59.1%     -    0s
     0     0   34.84211    0   26   22.00000   34.84211  58.4%     -    0s
     0     0   34.84211    0   25   22.00000   34.84211  58.4%     -    0s
     0     0   34.73684    0   25   22.00000   34.73684  57.9%     -    0s
     0     0   34.73684    0   25   22.00000   34.73684  57.9%     -    0s
     0     2   34.00000    0   25   22.00000   34.00000  54.5%     -    0s

Cutting planes:
  Gomory: 1
  Cover: 16
  MIR: 6
  Inf proof: 28

Explored 2438 nodes (151706 simplex iterations) in 1.17 seconds (1.43 work units)
Thread count was 16 (of 16 available processors)

Solution count 10: 22 21 20 ... 8

Optimal solution found (tolerance 1.00e-04)
Best objective 2.200000000000e+01, best bound 2.200000000000e+01, gap 0.0000%

Wrote result file '/root/bgw/data/results/2026_03_23_16_00_18_set_exp_3_exp_3_n021_c004_g004_max.sol'

